0 476
1 468
2 394
4 388
5 378
6 336
9 332
10 316
25 300
29 292
30 286
37 282
52 280
57 276
63 268
73 260
74 248
126 244
129 242
137 236
160 232
163 220
167 210
215 204
245 196
275 194
297 190
308 182
329 174
354 170
396 166
8861 162
9136 160
9184 158
30336 154
32175 152
